\* case *\
Maximize
no_need_for_max: __dummy
Subject To
E: Choice_0 + Choice_1 + 2 Choice_3 + Choice_5 + 2 Choice_7 + Choice_8
 + Choice_9 = 2
F: Choice_4 + Choice_5 = 0
G: Choice_8 = 0
H: Choice_3 + Choice_8 = 0
I: Choice_5 + Choice_6 + Choice_8 + Choice_9 = 0
N: Choice_1 + Choice_7 + Choice_9 = 1
O: Choice_0 + Choice_1 + Choice_2 + Choice_4 = 3
R: Choice_0 + Choice_3 + Choice_4 = 1
S: Choice_6 + Choice_7 = 0
T: Choice_2 + Choice_3 + Choice_8 = 1
U: Choice_4 = 0
V: Choice_5 + Choice_7 = 0
W: Choice_2 = 1
X: Choice_6 = 0
Z: Choice_0 = 1
Bounds
0 <= Choice_0 <= 1000
0 <= Choice_1 <= 1000
0 <= Choice_2 <= 1000
0 <= Choice_3 <= 1000
0 <= Choice_4 <= 1000
0 <= Choice_5 <= 1000
0 <= Choice_6 <= 1000
0 <= Choice_7 <= 1000
0 <= Choice_8 <= 1000
0 <= Choice_9 <= 1000
__dummy = 0
Generals
Choice_0
Choice_1
Choice_2
Choice_3
Choice_4
Choice_5
Choice_6
Choice_7
Choice_8
Choice_9
End
